p edge 25 60
e 1 4
e 1 12
e 1 13
e 1 15
e 1 25
e 2 8
e 2 20
e 2 23
e 3 4
e 3 6
e 3 7
e 3 9
e 3 10
e 3 18
e 3 20
e 3 22
e 3 23
e 4 19
e 4 22
e 4 24
e 5 10
e 5 19
e 5 21
e 5 23
e 6 14
e 6 16
e 6 18
e 7 12
e 7 25
e 8 9
e 8 11
e 8 16
e 8 17
e 8 25
e 9 11
e 9 12
e 9 23
e 10 16
e 10 17
e 10 19
e 11 12
e 11 18
e 12 15
e 12 16
e 12 24
e 12 25
e 13 18
e 13 19
e 13 23
e 14 21
e 14 25
e 16 22
e 16 23
e 17 21
e 17 22
e 17 23
e 18 22
e 20 23
e 23 24
e 24 25
